NAME : portcgen-20-6
COMMENT : portcgen N=20, seed=6
TYPE : TSP
DIMENSION : 20
EDGE_WEIGHT_TYPE : EUC_2D
NODE_COORD_SECTION
1 -82875 175734
2 70550 -151320
3 192210 11332
4 108636 237577
5 -138245 157986
6 71450 -110511
7 300090 502482
8 170360 -206247
9 -111392 -154955
10 57925 -312114
11 139963 -74075
12 -169933 117314
13 -207286 -312976
14 3602 32353
15 145089 319999
16 -110744 -28698
17 143768 -309441
18 8219 -31325
19 120225 127656
20 147000 175420
